% File represents an instance of a Composite Structure problem to be solved by a CP framework
% Created on 2025-03-26 10:42:10.712
T = 58;
n = 36;
m = 60;
edges = [(1, 2),
(7, 8),
(13, 14),
(19, 20),
(26, 25),
(32, 31),
(3, 2),
(9, 8),
(15, 14),
(21, 20),
(27, 26),
(32, 33),
(3, 4),
(10, 9),
(16, 15),
(22, 21),
(28, 27),
(34, 33),
(4, 5),
(10, 11),
(16, 17),
(22, 23),
(28, 29),
(34, 35),
(5, 6),
(11, 12),
(18, 17),
(24, 23),
(30, 29),
(36, 35),
(1, 7),
(7, 13),
(13, 19),
(19, 25),
(25, 31),
(2, 8),
(8, 14),
(14, 20),
(26, 20),
(32, 26),
(3, 9),
(15, 9),
(15, 21),
(27, 21),
(27, 33),
(10, 4),
(16, 10),
(16, 22),
(22, 28),
(28, 34),
(11, 5),
(17, 11),
(17, 23),
(23, 29),
(29, 35),
(12, 6),
(18, 12),
(18, 24),
(30, 24),
(30, 36)];
counts = [|12, 12, 12, 20,
|12, 10, 12, 20,
|12, 10, 12, 22,
|12, 8, 12, 18,
|12, 2, 12, 18,
|12, 2, 12, 16,
|12, 12, 12, 14,
|12, 10, 12, 14,
|12, 10, 12, 16,
|12, 12, 12, 20,
|12, 6, 12, 20,
|12, 4, 12, 20,
|12, 12, 12, 12,
|12, 10, 12, 12,
|12, 12, 12, 16,
|12, 12, 12, 22,
|12, 8, 12, 20,
|12, 10, 12, 20,
|12, 10, 12, 12,
|12, 8, 12, 8,
|12, 10, 12, 12,
|12, 10, 12, 18,
|12, 8, 12, 18,
|12, 10, 12, 18,
|12, 8, 12, 12,
|12, 8, 12, 14,
|12, 10, 12, 14,
|12, 10, 12, 16,
|12, 8, 12, 16,
|12, 10, 12, 20,
|12, 8, 12, 10,
|12, 8, 12, 16,
|12, 8, 12, 10,
|12, 10, 12, 12,
|12, 6, 12, 12,
|12, 10, 12, 14|];
